c created by edge2cnf
p cnf 500 3100
-1 -2 0
-1 -3 0
-1 -4 0
-1 -5 0
-2 -3 0
-2 -4 0
-2 -5 0
-3 -4 0
-3 -5 0
-4 -5 0
1 2 3 4 5 0
-6 -7 0
-6 -8 0
-6 -9 0
-6 -10 0
-7 -8 0
-7 -9 0
-7 -10 0
-8 -9 0
-8 -10 0
-9 -10 0
6 7 8 9 10 0
-11 -12 0
-11 -13 0
-11 -14 0
-11 -15 0
-12 -13 0
-12 -14 0
-12 -15 0
-13 -14 0
-13 -15 0
-14 -15 0
11 12 13 14 15 0
-16 -17 0
-16 -18 0
-16 -19 0
-16 -20 0
-17 -18 0
-17 -19 0
-17 -20 0
-18 -19 0
-18 -20 0
-19 -20 0
16 17 18 19 20 0
-21 -22 0
-21 -23 0
-21 -24 0
-21 -25 0
-22 -23 0
-22 -24 0
-22 -25 0
-23 -24 0
-23 -25 0
-24 -25 0
21 22 23 24 25 0
-26 -27 0
-26 -28 0
-26 -29 0
-26 -30 0
-27 -28 0
-27 -29 0
-27 -30 0
-28 -29 0
-28 -30 0
-29 -30 0
26 27 28 29 30 0
-31 -32 0
-31 -33 0
-31 -34 0
-31 -35 0
-32 -33 0
-32 -34 0
-32 -35 0
-33 -34 0
-33 -35 0
-34 -35 0
31 32 33 34 35 0
-36 -37 0
-36 -38 0
-36 -39 0
-36 -40 0
-37 -38 0
-37 -39 0
-37 -40 0
-38 -39 0
-38 -40 0
-39 -40 0
36 37 38 39 40 0
-41 -42 0
-41 -43 0
-41 -44 0
-41 -45 0
-42 -43 0
-42 -44 0
-42 -45 0
-43 -44 0
-43 -45 0
-44 -45 0
41 42 43 44 45 0
-46 -47 0
-46 -48 0
-46 -49 0
-46 -50 0
-47 -48 0
-47 -49 0
-47 -50 0
-48 -49 0
-48 -50 0
-49 -50 0
46 47 48 49 50 0
-51 -52 0
-51 -53 0
-51 -54 0
-51 -55 0
-52 -53 0
-52 -54 0
-52 -55 0
-53 -54 0
-53 -55 0
-54 -55 0
51 52 53 54 55 0
-56 -57 0
-56 -58 0
-56 -59 0
-56 -60 0
-57 -58 0
-57 -59 0
-57 -60 0
-58 -59 0
-58 -60 0
-59 -60 0
56 57 58 59 60 0
-61 -62 0
-61 -63 0
-61 -64 0
-61 -65 0
-62 -63 0
-62 -64 0
-62 -65 0
-63 -64 0
-63 -65 0
-64 -65 0
61 62 63 64 65 0
-66 -67 0
-66 -68 0
-66 -69 0
-66 -70 0
-67 -68 0
-67 -69 0
-67 -70 0
-68 -69 0
-68 -70 0
-69 -70 0
66 67 68 69 70 0
-71 -72 0
-71 -73 0
-71 -74 0
-71 -75 0
-72 -73 0
-72 -74 0
-72 -75 0
-73 -74 0
-73 -75 0
-74 -75 0
71 72 73 74 75 0
-76 -77 0
-76 -78 0
-76 -79 0
-76 -80 0
-77 -78 0
-77 -79 0
-77 -80 0
-78 -79 0
-78 -80 0
-79 -80 0
76 77 78 79 80 0
-81 -82 0
-81 -83 0
-81 -84 0
-81 -85 0
-82 -83 0
-82 -84 0
-82 -85 0
-83 -84 0
-83 -85 0
-84 -85 0
81 82 83 84 85 0
-86 -87 0
-86 -88 0
-86 -89 0
-86 -90 0
-87 -88 0
-87 -89 0
-87 -90 0
-88 -89 0
-88 -90 0
-89 -90 0
86 87 88 89 90 0
-91 -92 0
-91 -93 0
-91 -94 0
-91 -95 0
-92 -93 0
-92 -94 0
-92 -95 0
-93 -94 0
-93 -95 0
-94 -95 0
91 92 93 94 95 0
-96 -97 0
-96 -98 0
-96 -99 0
-96 -100 0
-97 -98 0
-97 -99 0
-97 -100 0
-98 -99 0
-98 -100 0
-99 -100 0
96 97 98 99 100 0
-101 -102 0
-101 -103 0
-101 -104 0
-101 -105 0
-102 -103 0
-102 -104 0
-102 -105 0
-103 -104 0
-103 -105 0
-104 -105 0
101 102 103 104 105 0
-106 -107 0
-106 -108 0
-106 -109 0
-106 -110 0
-107 -108 0
-107 -109 0
-107 -110 0
-108 -109 0
-108 -110 0
-109 -110 0
106 107 108 109 110 0
-111 -112 0
-111 -113 0
-111 -114 0
-111 -115 0
-112 -113 0
-112 -114 0
-112 -115 0
-113 -114 0
-113 -115 0
-114 -115 0
111 112 113 114 115 0
-116 -117 0
-116 -118 0
-116 -119 0
-116 -120 0
-117 -118 0
-117 -119 0
-117 -120 0
-118 -119 0
-118 -120 0
-119 -120 0
116 117 118 119 120 0
-121 -122 0
-121 -123 0
-121 -124 0
-121 -125 0
-122 -123 0
-122 -124 0
-122 -125 0
-123 -124 0
-123 -125 0
-124 -125 0
121 122 123 124 125 0
-126 -127 0
-126 -128 0
-126 -129 0
-126 -130 0
-127 -128 0
-127 -129 0
-127 -130 0
-128 -129 0
-128 -130 0
-129 -130 0
126 127 128 129 130 0
-131 -132 0
-131 -133 0
-131 -134 0
-131 -135 0
-132 -133 0
-132 -134 0
-132 -135 0
-133 -134 0
-133 -135 0
-134 -135 0
131 132 133 134 135 0
-136 -137 0
-136 -138 0
-136 -139 0
-136 -140 0
-137 -138 0
-137 -139 0
-137 -140 0
-138 -139 0
-138 -140 0
-139 -140 0
136 137 138 139 140 0
-141 -142 0
-141 -143 0
-141 -144 0
-141 -145 0
-142 -143 0
-142 -144 0
-142 -145 0
-143 -144 0
-143 -145 0
-144 -145 0
141 142 143 144 145 0
-146 -147 0
-146 -148 0
-146 -149 0
-146 -150 0
-147 -148 0
-147 -149 0
-147 -150 0
-148 -149 0
-148 -150 0
-149 -150 0
146 147 148 149 150 0
-151 -152 0
-151 -153 0
-151 -154 0
-151 -155 0
-152 -153 0
-152 -154 0
-152 -155 0
-153 -154 0
-153 -155 0
-154 -155 0
151 152 153 154 155 0
-156 -157 0
-156 -158 0
-156 -159 0
-156 -160 0
-157 -158 0
-157 -159 0
-157 -160 0
-158 -159 0
-158 -160 0
-159 -160 0
156 157 158 159 160 0
-161 -162 0
-161 -163 0
-161 -164 0
-161 -165 0
-162 -163 0
-162 -164 0
-162 -165 0
-163 -164 0
-163 -165 0
-164 -165 0
161 162 163 164 165 0
-166 -167 0
-166 -168 0
-166 -169 0
-166 -170 0
-167 -168 0
-167 -169 0
-167 -170 0
-168 -169 0
-168 -170 0
-169 -170 0
166 167 168 169 170 0
-171 -172 0
-171 -173 0
-171 -174 0
-171 -175 0
-172 -173 0
-172 -174 0
-172 -175 0
-173 -174 0
-173 -175 0
-174 -175 0
171 172 173 174 175 0
-176 -177 0
-176 -178 0
-176 -179 0
-176 -180 0
-177 -178 0
-177 -179 0
-177 -180 0
-178 -179 0
-178 -180 0
-179 -180 0
176 177 178 179 180 0
-181 -182 0
-181 -183 0
-181 -184 0
-181 -185 0
-182 -183 0
-182 -184 0
-182 -185 0
-183 -184 0
-183 -185 0
-184 -185 0
181 182 183 184 185 0
-186 -187 0
-186 -188 0
-186 -189 0
-186 -190 0
-187 -188 0
-187 -189 0
-187 -190 0
-188 -189 0
-188 -190 0
-189 -190 0
186 187 188 189 190 0
-191 -192 0
-191 -193 0
-191 -194 0
-191 -195 0
-192 -193 0
-192 -194 0
-192 -195 0
-193 -194 0
-193 -195 0
-194 -195 0
191 192 193 194 195 0
-196 -197 0
-196 -198 0
-196 -199 0
-196 -200 0
-197 -198 0
-197 -199 0
-197 -200 0
-198 -199 0
-198 -200 0
-199 -200 0
196 197 198 199 200 0
-201 -202 0
-201 -203 0
-201 -204 0
-201 -205 0
-202 -203 0
-202 -204 0
-202 -205 0
-203 -204 0
-203 -205 0
-204 -205 0
201 202 203 204 205 0
-206 -207 0
-206 -208 0
-206 -209 0
-206 -210 0
-207 -208 0
-207 -209 0
-207 -210 0
-208 -209 0
-208 -210 0
-209 -210 0
206 207 208 209 210 0
-211 -212 0
-211 -213 0
-211 -214 0
-211 -215 0
-212 -213 0
-212 -214 0
-212 -215 0
-213 -214 0
-213 -215 0
-214 -215 0
211 212 213 214 215 0
-216 -217 0
-216 -218 0
-216 -219 0
-216 -220 0
-217 -218 0
-217 -219 0
-217 -220 0
-218 -219 0
-218 -220 0
-219 -220 0
216 217 218 219 220 0
-221 -222 0
-221 -223 0
-221 -224 0
-221 -225 0
-222 -223 0
-222 -224 0
-222 -225 0
-223 -224 0
-223 -225 0
-224 -225 0
221 222 223 224 225 0
-226 -227 0
-226 -228 0
-226 -229 0
-226 -230 0
-227 -228 0
-227 -229 0
-227 -230 0
-228 -229 0
-228 -230 0
-229 -230 0
226 227 228 229 230 0
-231 -232 0
-231 -233 0
-231 -234 0
-231 -235 0
-232 -233 0
-232 -234 0
-232 -235 0
-233 -234 0
-233 -235 0
-234 -235 0
231 232 233 234 235 0
-236 -237 0
-236 -238 0
-236 -239 0
-236 -240 0
-237 -238 0
-237 -239 0
-237 -240 0
-238 -239 0
-238 -240 0
-239 -240 0
236 237 238 239 240 0
-241 -242 0
-241 -243 0
-241 -244 0
-241 -245 0
-242 -243 0
-242 -244 0
-242 -245 0
-243 -244 0
-243 -245 0
-244 -245 0
241 242 243 244 245 0
-246 -247 0
-246 -248 0
-246 -249 0
-246 -250 0
-247 -248 0
-247 -249 0
-247 -250 0
-248 -249 0
-248 -250 0
-249 -250 0
246 247 248 249 250 0
-251 -252 0
-251 -253 0
-251 -254 0
-251 -255 0
-252 -253 0
-252 -254 0
-252 -255 0
-253 -254 0
-253 -255 0
-254 -255 0
251 252 253 254 255 0
-256 -257 0
-256 -258 0
-256 -259 0
-256 -260 0
-257 -258 0
-257 -259 0
-257 -260 0
-258 -259 0
-258 -260 0
-259 -260 0
256 257 258 259 260 0
-261 -262 0
-261 -263 0
-261 -264 0
-261 -265 0
-262 -263 0
-262 -264 0
-262 -265 0
-263 -264 0
-263 -265 0
-264 -265 0
261 262 263 264 265 0
-266 -267 0
-266 -268 0
-266 -269 0
-266 -270 0
-267 -268 0
-267 -269 0
-267 -270 0
-268 -269 0
-268 -270 0
-269 -270 0
266 267 268 269 270 0
-271 -272 0
-271 -273 0
-271 -274 0
-271 -275 0
-272 -273 0
-272 -274 0
-272 -275 0
-273 -274 0
-273 -275 0
-274 -275 0
271 272 273 274 275 0
-276 -277 0
-276 -278 0
-276 -279 0
-276 -280 0
-277 -278 0
-277 -279 0
-277 -280 0
-278 -279 0
-278 -280 0
-279 -280 0
276 277 278 279 280 0
-281 -282 0
-281 -283 0
-281 -284 0
-281 -285 0
-282 -283 0
-282 -284 0
-282 -285 0
-283 -284 0
-283 -285 0
-284 -285 0
281 282 283 284 285 0
-286 -287 0
-286 -288 0
-286 -289 0
-286 -290 0
-287 -288 0
-287 -289 0
-287 -290 0
-288 -289 0
-288 -290 0
-289 -290 0
286 287 288 289 290 0
-291 -292 0
-291 -293 0
-291 -294 0
-291 -295 0
-292 -293 0
-292 -294 0
-292 -295 0
-293 -294 0
-293 -295 0
-294 -295 0
291 292 293 294 295 0
-296 -297 0
-296 -298 0
-296 -299 0
-296 -300 0
-297 -298 0
-297 -299 0
-297 -300 0
-298 -299 0
-298 -300 0
-299 -300 0
296 297 298 299 300 0
-301 -302 0
-301 -303 0
-301 -304 0
-301 -305 0
-302 -303 0
-302 -304 0
-302 -305 0
-303 -304 0
-303 -305 0
-304 -305 0
301 302 303 304 305 0
-306 -307 0
-306 -308 0
-306 -309 0
-306 -310 0
-307 -308 0
-307 -309 0
-307 -310 0
-308 -309 0
-308 -310 0
-309 -310 0
306 307 308 309 310 0
-311 -312 0
-311 -313 0
-311 -314 0
-311 -315 0
-312 -313 0
-312 -314 0
-312 -315 0
-313 -314 0
-313 -315 0
-314 -315 0
311 312 313 314 315 0
-316 -317 0
-316 -318 0
-316 -319 0
-316 -320 0
-317 -318 0
-317 -319 0
-317 -320 0
-318 -319 0
-318 -320 0
-319 -320 0
316 317 318 319 320 0
-321 -322 0
-321 -323 0
-321 -324 0
-321 -325 0
-322 -323 0
-322 -324 0
-322 -325 0
-323 -324 0
-323 -325 0
-324 -325 0
321 322 323 324 325 0
-326 -327 0
-326 -328 0
-326 -329 0
-326 -330 0
-327 -328 0
-327 -329 0
-327 -330 0
-328 -329 0
-328 -330 0
-329 -330 0
326 327 328 329 330 0
-331 -332 0
-331 -333 0
-331 -334 0
-331 -335 0
-332 -333 0
-332 -334 0
-332 -335 0
-333 -334 0
-333 -335 0
-334 -335 0
331 332 333 334 335 0
-336 -337 0
-336 -338 0
-336 -339 0
-336 -340 0
-337 -338 0
-337 -339 0
-337 -340 0
-338 -339 0
-338 -340 0
-339 -340 0
336 337 338 339 340 0
-341 -342 0
-341 -343 0
-341 -344 0
-341 -345 0
-342 -343 0
-342 -344 0
-342 -345 0
-343 -344 0
-343 -345 0
-344 -345 0
341 342 343 344 345 0
-346 -347 0
-346 -348 0
-346 -349 0
-346 -350 0
-347 -348 0
-347 -349 0
-347 -350 0
-348 -349 0
-348 -350 0
-349 -350 0
346 347 348 349 350 0
-351 -352 0
-351 -353 0
-351 -354 0
-351 -355 0
-352 -353 0
-352 -354 0
-352 -355 0
-353 -354 0
-353 -355 0
-354 -355 0
351 352 353 354 355 0
-356 -357 0
-356 -358 0
-356 -359 0
-356 -360 0
-357 -358 0
-357 -359 0
-357 -360 0
-358 -359 0
-358 -360 0
-359 -360 0
356 357 358 359 360 0
-361 -362 0
-361 -363 0
-361 -364 0
-361 -365 0
-362 -363 0
-362 -364 0
-362 -365 0
-363 -364 0
-363 -365 0
-364 -365 0
361 362 363 364 365 0
-366 -367 0
-366 -368 0
-366 -369 0
-366 -370 0
-367 -368 0
-367 -369 0
-367 -370 0
-368 -369 0
-368 -370 0
-369 -370 0
366 367 368 369 370 0
-371 -372 0
-371 -373 0
-371 -374 0
-371 -375 0
-372 -373 0
-372 -374 0
-372 -375 0
-373 -374 0
-373 -375 0
-374 -375 0
371 372 373 374 375 0
-376 -377 0
-376 -378 0
-376 -379 0
-376 -380 0
-377 -378 0
-377 -379 0
-377 -380 0
-378 -379 0
-378 -380 0
-379 -380 0
376 377 378 379 380 0
-381 -382 0
-381 -383 0
-381 -384 0
-381 -385 0
-382 -383 0
-382 -384 0
-382 -385 0
-383 -384 0
-383 -385 0
-384 -385 0
381 382 383 384 385 0
-386 -387 0
-386 -388 0
-386 -389 0
-386 -390 0
-387 -388 0
-387 -389 0
-387 -390 0
-388 -389 0
-388 -390 0
-389 -390 0
386 387 388 389 390 0
-391 -392 0
-391 -393 0
-391 -394 0
-391 -395 0
-392 -393 0
-392 -394 0
-392 -395 0
-393 -394 0
-393 -395 0
-394 -395 0
391 392 393 394 395 0
-396 -397 0
-396 -398 0
-396 -399 0
-396 -400 0
-397 -398 0
-397 -399 0
-397 -400 0
-398 -399 0
-398 -400 0
-399 -400 0
396 397 398 399 400 0
-401 -402 0
-401 -403 0
-401 -404 0
-401 -405 0
-402 -403 0
-402 -404 0
-402 -405 0
-403 -404 0
-403 -405 0
-404 -405 0
401 402 403 404 405 0
-406 -407 0
-406 -408 0
-406 -409 0
-406 -410 0
-407 -408 0
-407 -409 0
-407 -410 0
-408 -409 0
-408 -410 0
-409 -410 0
406 407 408 409 410 0
-411 -412 0
-411 -413 0
-411 -414 0
-411 -415 0
-412 -413 0
-412 -414 0
-412 -415 0
-413 -414 0
-413 -415 0
-414 -415 0
411 412 413 414 415 0
-416 -417 0
-416 -418 0
-416 -419 0
-416 -420 0
-417 -418 0
-417 -419 0
-417 -420 0
-418 -419 0
-418 -420 0
-419 -420 0
416 417 418 419 420 0
-421 -422 0
-421 -423 0
-421 -424 0
-421 -425 0
-422 -423 0
-422 -424 0
-422 -425 0
-423 -424 0
-423 -425 0
-424 -425 0
421 422 423 424 425 0
-426 -427 0
-426 -428 0
-426 -429 0
-426 -430 0
-427 -428 0
-427 -429 0
-427 -430 0
-428 -429 0
-428 -430 0
-429 -430 0
426 427 428 429 430 0
-431 -432 0
-431 -433 0
-431 -434 0
-431 -435 0
-432 -433 0
-432 -434 0
-432 -435 0
-433 -434 0
-433 -435 0
-434 -435 0
431 432 433 434 435 0
-436 -437 0
-436 -438 0
-436 -439 0
-436 -440 0
-437 -438 0
-437 -439 0
-437 -440 0
-438 -439 0
-438 -440 0
-439 -440 0
436 437 438 439 440 0
-441 -442 0
-441 -443 0
-441 -444 0
-441 -445 0
-442 -443 0
-442 -444 0
-442 -445 0
-443 -444 0
-443 -445 0
-444 -445 0
441 442 443 444 445 0
-446 -447 0
-446 -448 0
-446 -449 0
-446 -450 0
-447 -448 0
-447 -449 0
-447 -450 0
-448 -449 0
-448 -450 0
-449 -450 0
446 447 448 449 450 0
-451 -452 0
-451 -453 0
-451 -454 0
-451 -455 0
-452 -453 0
-452 -454 0
-452 -455 0
-453 -454 0
-453 -455 0
-454 -455 0
451 452 453 454 455 0
-456 -457 0
-456 -458 0
-456 -459 0
-456 -460 0
-457 -458 0
-457 -459 0
-457 -460 0
-458 -459 0
-458 -460 0
-459 -460 0
456 457 458 459 460 0
-461 -462 0
-461 -463 0
-461 -464 0
-461 -465 0
-462 -463 0
-462 -464 0
-462 -465 0
-463 -464 0
-463 -465 0
-464 -465 0
461 462 463 464 465 0
-466 -467 0
-466 -468 0
-466 -469 0
-466 -470 0
-467 -468 0
-467 -469 0
-467 -470 0
-468 -469 0
-468 -470 0
-469 -470 0
466 467 468 469 470 0
-471 -472 0
-471 -473 0
-471 -474 0
-471 -475 0
-472 -473 0
-472 -474 0
-472 -475 0
-473 -474 0
-473 -475 0
-474 -475 0
471 472 473 474 475 0
-476 -477 0
-476 -478 0
-476 -479 0
-476 -480 0
-477 -478 0
-477 -479 0
-477 -480 0
-478 -479 0
-478 -480 0
-479 -480 0
476 477 478 479 480 0
-481 -482 0
-481 -483 0
-481 -484 0
-481 -485 0
-482 -483 0
-482 -484 0
-482 -485 0
-483 -484 0
-483 -485 0
-484 -485 0
481 482 483 484 485 0
-486 -487 0
-486 -488 0
-486 -489 0
-486 -490 0
-487 -488 0
-487 -489 0
-487 -490 0
-488 -489 0
-488 -490 0
-489 -490 0
486 487 488 489 490 0
-491 -492 0
-491 -493 0
-491 -494 0
-491 -495 0
-492 -493 0
-492 -494 0
-492 -495 0
-493 -494 0
-493 -495 0
-494 -495 0
491 492 493 494 495 0
-496 -497 0
-496 -498 0
-496 -499 0
-496 -500 0
-497 -498 0
-497 -499 0
-497 -500 0
-498 -499 0
-498 -500 0
-499 -500 0
496 497 498 499 500 0
-21 -26 0
-22 -27 0
-23 -28 0
-24 -29 0
-25 -30 0
-41 -61 0
-42 -62 0
-43 -63 0
-44 -64 0
-45 -65 0
-46 -66 0
-47 -67 0
-48 -68 0
-49 -69 0
-50 -70 0
-56 -76 0
-57 -77 0
-58 -78 0
-59 -79 0
-60 -80 0
-116 -121 0
-117 -122 0
-118 -123 0
-119 -124 0
-120 -125 0
-126 -136 0
-127 -137 0
-128 -138 0
-129 -139 0
-130 -140 0
-146 -156 0
-147 -157 0
-148 -158 0
-149 -159 0
-150 -160 0
-156 -161 0
-157 -162 0
-158 -163 0
-159 -164 0
-160 -165 0
-156 -166 0
-157 -167 0
-158 -168 0
-159 -169 0
-160 -170 0
-181 -196 0
-182 -197 0
-183 -198 0
-184 -199 0
-185 -200 0
-196 -206 0
-197 -207 0
-198 -208 0
-199 -209 0
-200 -210 0
-221 -231 0
-222 -232 0
-223 -233 0
-224 -234 0
-225 -235 0
-221 -241 0
-222 -242 0
-223 -243 0
-224 -244 0
-225 -245 0
-231 -246 0
-232 -247 0
-233 -248 0
-234 -249 0
-235 -250 0
-256 -276 0
-257 -277 0
-258 -278 0
-259 -279 0
-260 -280 0
-271 -281 0
-272 -282 0
-273 -283 0
-274 -284 0
-275 -285 0
-291 -311 0
-292 -312 0
-293 -313 0
-294 -314 0
-295 -315 0
-306 -321 0
-307 -322 0
-308 -323 0
-309 -324 0
-310 -325 0
-336 -351 0
-337 -352 0
-338 -353 0
-339 -354 0
-340 -355 0
-421 -436 0
-422 -437 0
-423 -438 0
-424 -439 0
-425 -440 0
-436 -451 0
-437 -452 0
-438 -453 0
-439 -454 0
-440 -455 0
-441 -456 0
-442 -457 0
-443 -458 0
-444 -459 0
-445 -460 0
-441 -461 0
-442 -462 0
-443 -463 0
-444 -464 0
-445 -465 0
-466 -476 0
-467 -477 0
-468 -478 0
-469 -479 0
-470 -480 0
-486 -496 0
-487 -497 0
-488 -498 0
-489 -499 0
-490 -500 0
-1 -126 0
-2 -127 0
-3 -128 0
-4 -129 0
-5 -130 0
-1 -141 0
-2 -142 0
-3 -143 0
-4 -144 0
-5 -145 0
-1 -191 0
-2 -192 0
-3 -193 0
-4 -194 0
-5 -195 0
-1 -316 0
-2 -317 0
-3 -318 0
-4 -319 0
-5 -320 0
-1 -321 0
-2 -322 0
-3 -323 0
-4 -324 0
-5 -325 0
-1 -416 0
-2 -417 0
-3 -418 0
-4 -419 0
-5 -420 0
-1 -426 0
-2 -427 0
-3 -428 0
-4 -429 0
-5 -430 0
-6 -31 0
-7 -32 0
-8 -33 0
-9 -34 0
-10 -35 0
-6 -66 0
-7 -67 0
-8 -68 0
-9 -69 0
-10 -70 0
-6 -71 0
-7 -72 0
-8 -73 0
-9 -74 0
-10 -75 0
-6 -141 0
-7 -142 0
-8 -143 0
-9 -144 0
-10 -145 0
-6 -191 0
-7 -192 0
-8 -193 0
-9 -194 0
-10 -195 0
-6 -301 0
-7 -302 0
-8 -303 0
-9 -304 0
-10 -305 0
-6 -336 0
-7 -337 0
-8 -338 0
-9 -339 0
-10 -340 0
-6 -436 0
-7 -437 0
-8 -438 0
-9 -439 0
-10 -440 0
-11 -261 0
-12 -262 0
-13 -263 0
-14 -264 0
-15 -265 0
-11 -331 0
-12 -332 0
-13 -333 0
-14 -334 0
-15 -335 0
-11 -336 0
-12 -337 0
-13 -338 0
-14 -339 0
-15 -340 0
-16 -56 0
-17 -57 0
-18 -58 0
-19 -59 0
-20 -60 0
-16 -76 0
-17 -77 0
-18 -78 0
-19 -79 0
-20 -80 0
-16 -171 0
-17 -172 0
-18 -173 0
-19 -174 0
-20 -175 0
-16 -221 0
-17 -222 0
-18 -223 0
-19 -224 0
-20 -225 0
-16 -271 0
-17 -272 0
-18 -273 0
-19 -274 0
-20 -275 0
-16 -411 0
-17 -412 0
-18 -413 0
-19 -414 0
-20 -415 0
-21 -141 0
-22 -142 0
-23 -143 0
-24 -144 0
-25 -145 0
-21 -151 0
-22 -152 0
-23 -153 0
-24 -154 0
-25 -155 0
-21 -176 0
-22 -177 0
-23 -178 0
-24 -179 0
-25 -180 0
-21 -226 0
-22 -227 0
-23 -228 0
-24 -229 0
-25 -230 0
-21 -336 0
-22 -337 0
-23 -338 0
-24 -339 0
-25 -340 0
-21 -361 0
-22 -362 0
-23 -363 0
-24 -364 0
-25 -365 0
-21 -366 0
-22 -367 0
-23 -368 0
-24 -369 0
-25 -370 0
-21 -466 0
-22 -467 0
-23 -468 0
-24 -469 0
-25 -470 0
-21 -496 0
-22 -497 0
-23 -498 0
-24 -499 0
-25 -500 0
-26 -51 0
-27 -52 0
-28 -53 0
-29 -54 0
-30 -55 0
-26 -111 0
-27 -112 0
-28 -113 0
-29 -114 0
-30 -115 0
-26 -126 0
-27 -127 0
-28 -128 0
-29 -129 0
-30 -130 0
-26 -131 0
-27 -132 0
-28 -133 0
-29 -134 0
-30 -135 0
-26 -141 0
-27 -142 0
-28 -143 0
-29 -144 0
-30 -145 0
-26 -156 0
-27 -157 0
-28 -158 0
-29 -159 0
-30 -160 0
-26 -186 0
-27 -187 0
-28 -188 0
-29 -189 0
-30 -190 0
-26 -216 0
-27 -217 0
-28 -218 0
-29 -219 0
-30 -220 0
-26 -286 0
-27 -287 0
-28 -288 0
-29 -289 0
-30 -290 0
-26 -306 0
-27 -307 0
-28 -308 0
-29 -309 0
-30 -310 0
-26 -351 0
-27 -352 0
-28 -353 0
-29 -354 0
-30 -355 0
-26 -361 0
-27 -362 0
-28 -363 0
-29 -364 0
-30 -365 0
-26 -451 0
-27 -452 0
-28 -453 0
-29 -454 0
-30 -455 0
-31 -96 0
-32 -97 0
-33 -98 0
-34 -99 0
-35 -100 0
-31 -101 0
-32 -102 0
-33 -103 0
-34 -104 0
-35 -105 0
-31 -161 0
-32 -162 0
-33 -163 0
-34 -164 0
-35 -165 0
-31 -231 0
-32 -232 0
-33 -233 0
-34 -234 0
-35 -235 0
-31 -236 0
-32 -237 0
-33 -238 0
-34 -239 0
-35 -240 0
-36 -76 0
-37 -77 0
-38 -78 0
-39 -79 0
-40 -80 0
-36 -191 0
-37 -192 0
-38 -193 0
-39 -194 0
-40 -195 0
-36 -231 0
-37 -232 0
-38 -233 0
-39 -234 0
-40 -235 0
-36 -251 0
-37 -252 0
-38 -253 0
-39 -254 0
-40 -255 0
-36 -271 0
-37 -272 0
-38 -273 0
-39 -274 0
-40 -275 0
-36 -286 0
-37 -287 0
-38 -288 0
-39 -289 0
-40 -290 0
-36 -331 0
-37 -332 0
-38 -333 0
-39 -334 0
-40 -335 0
-36 -366 0
-37 -367 0
-38 -368 0
-39 -369 0
-40 -370 0
-36 -376 0
-37 -377 0
-38 -378 0
-39 -379 0
-40 -380 0
-36 -496 0
-37 -497 0
-38 -498 0
-39 -499 0
-40 -500 0
-41 -151 0
-42 -152 0
-43 -153 0
-44 -154 0
-45 -155 0
-41 -196 0
-42 -197 0
-43 -198 0
-44 -199 0
-45 -200 0
-41 -216 0
-42 -217 0
-43 -218 0
-44 -219 0
-45 -220 0
-41 -221 0
-42 -222 0
-43 -223 0
-44 -224 0
-45 -225 0
-41 -236 0
-42 -237 0
-43 -238 0
-44 -239 0
-45 -240 0
-41 -311 0
-42 -312 0
-43 -313 0
-44 -314 0
-45 -315 0
-41 -316 0
-42 -317 0
-43 -318 0
-44 -319 0
-45 -320 0
-41 -326 0
-42 -327 0
-43 -328 0
-44 -329 0
-45 -330 0
-41 -361 0
-42 -362 0
-43 -363 0
-44 -364 0
-45 -365 0
-41 -411 0
-42 -412 0
-43 -413 0
-44 -414 0
-45 -415 0
-41 -461 0
-42 -462 0
-43 -463 0
-44 -464 0
-45 -465 0
-46 -141 0
-47 -142 0
-48 -143 0
-49 -144 0
-50 -145 0
-46 -206 0
-47 -207 0
-48 -208 0
-49 -209 0
-50 -210 0
-46 -226 0
-47 -227 0
-48 -228 0
-49 -229 0
-50 -230 0
-46 -296 0
-47 -297 0
-48 -298 0
-49 -299 0
-50 -300 0
-46 -341 0
-47 -342 0
-48 -343 0
-49 -344 0
-50 -345 0
-46 -366 0
-47 -367 0
-48 -368 0
-49 -369 0
-50 -370 0
-46 -416 0
-47 -417 0
-48 -418 0
-49 -419 0
-50 -420 0
-46 -441 0
-47 -442 0
-48 -443 0
-49 -444 0
-50 -445 0
-51 -171 0
-52 -172 0
-53 -173 0
-54 -174 0
-55 -175 0
-51 -236 0
-52 -237 0
-53 -238 0
-54 -239 0
-55 -240 0
-51 -311 0
-52 -312 0
-53 -313 0
-54 -314 0
-55 -315 0
-51 -386 0
-52 -387 0
-53 -388 0
-54 -389 0
-55 -390 0
-51 -456 0
-52 -457 0
-53 -458 0
-54 -459 0
-55 -460 0
-56 -96 0
-57 -97 0
-58 -98 0
-59 -99 0
-60 -100 0
-56 -166 0
-57 -167 0
-58 -168 0
-59 -169 0
-60 -170 0
-56 -176 0
-57 -177 0
-58 -178 0
-59 -179 0
-60 -180 0
-56 -201 0
-57 -202 0
-58 -203 0
-59 -204 0
-60 -205 0
-56 -286 0
-57 -287 0
-58 -288 0
-59 -289 0
-60 -290 0
-56 -346 0
-57 -347 0
-58 -348 0
-59 -349 0
-60 -350 0
-56 -406 0
-57 -407 0
-58 -408 0
-59 -409 0
-60 -410 0
-61 -191 0
-62 -192 0
-63 -193 0
-64 -194 0
-65 -195 0
-61 -206 0
-62 -207 0
-63 -208 0
-64 -209 0
-65 -210 0
-61 -211 0
-62 -212 0
-63 -213 0
-64 -214 0
-65 -215 0
-61 -221 0
-62 -222 0
-63 -223 0
-64 -224 0
-65 -225 0
-61 -246 0
-62 -247 0
-63 -248 0
-64 -249 0
-65 -250 0
-61 -306 0
-62 -307 0
-63 -308 0
-64 -309 0
-65 -310 0
-61 -346 0
-62 -347 0
-63 -348 0
-64 -349 0
-65 -350 0
-61 -351 0
-62 -352 0
-63 -353 0
-64 -354 0
-65 -355 0
-61 -491 0
-62 -492 0
-63 -493 0
-64 -494 0
-65 -495 0
-66 -106 0
-67 -107 0
-68 -108 0
-69 -109 0
-70 -110 0
-66 -166 0
-67 -167 0
-68 -168 0
-69 -169 0
-70 -170 0
-66 -201 0
-67 -202 0
-68 -203 0
-69 -204 0
-70 -205 0
-66 -206 0
-67 -207 0
-68 -208 0
-69 -209 0
-70 -210 0
-66 -221 0
-67 -222 0
-68 -223 0
-69 -224 0
-70 -225 0
-66 -361 0
-67 -362 0
-68 -363 0
-69 -364 0
-70 -365 0
-66 -426 0
-67 -427 0
-68 -428 0
-69 -429 0
-70 -430 0
-66 -481 0
-67 -482 0
-68 -483 0
-69 -484 0
-70 -485 0
-71 -101 0
-72 -102 0
-73 -103 0
-74 -104 0
-75 -105 0
-71 -116 0
-72 -117 0
-73 -118 0
-74 -119 0
-75 -120 0
-71 -146 0
-72 -147 0
-73 -148 0
-74 -149 0
-75 -150 0
-71 -201 0
-72 -202 0
-73 -203 0
-74 -204 0
-75 -205 0
-71 -251 0
-72 -252 0
-73 -253 0
-74 -254 0
-75 -255 0
-71 -486 0
-72 -487 0
-73 -488 0
-74 -489 0
-75 -490 0
-76 -156 0
-77 -157 0
-78 -158 0
-79 -159 0
-80 -160 0
-76 -161 0
-77 -162 0
-78 -163 0
-79 -164 0
-80 -165 0
-76 -251 0
-77 -252 0
-78 -253 0
-79 -254 0
-80 -255 0
-76 -256 0
-77 -257 0
-78 -258 0
-79 -259 0
-80 -260 0
-76 -286 0
-77 -287 0
-78 -288 0
-79 -289 0
-80 -290 0
-76 -316 0
-77 -317 0
-78 -318 0
-79 -319 0
-80 -320 0
-76 -326 0
-77 -327 0
-78 -328 0
-79 -329 0
-80 -330 0
-76 -351 0
-77 -352 0
-78 -353 0
-79 -354 0
-80 -355 0
-76 -381 0
-77 -382 0
-78 -383 0
-79 -384 0
-80 -385 0
-76 -391 0
-77 -392 0
-78 -393 0
-79 -394 0
-80 -395 0
-76 -466 0
-77 -467 0
-78 -468 0
-79 -469 0
-80 -470 0
-76 -471 0
-77 -472 0
-78 -473 0
-79 -474 0
-80 -475 0
-81 -106 0
-82 -107 0
-83 -108 0
-84 -109 0
-85 -110 0
-81 -131 0
-82 -132 0
-83 -133 0
-84 -134 0
-85 -135 0
-81 -141 0
-82 -142 0
-83 -143 0
-84 -144 0
-85 -145 0
-81 -176 0
-82 -177 0
-83 -178 0
-84 -179 0
-85 -180 0
-81 -231 0
-82 -232 0
-83 -233 0
-84 -234 0
-85 -235 0
-81 -251 0
-82 -252 0
-83 -253 0
-84 -254 0
-85 -255 0
-81 -291 0
-82 -292 0
-83 -293 0
-84 -294 0
-85 -295 0
-81 -361 0
-82 -362 0
-83 -363 0
-84 -364 0
-85 -365 0
-81 -391 0
-82 -392 0
-83 -393 0
-84 -394 0
-85 -395 0
-81 -396 0
-82 -397 0
-83 -398 0
-84 -399 0
-85 -400 0
-81 -436 0
-82 -437 0
-83 -438 0
-84 -439 0
-85 -440 0
-81 -441 0
-82 -442 0
-83 -443 0
-84 -444 0
-85 -445 0
-81 -451 0
-82 -452 0
-83 -453 0
-84 -454 0
-85 -455 0
-81 -461 0
-82 -462 0
-83 -463 0
-84 -464 0
-85 -465 0
-86 -111 0
-87 -112 0
-88 -113 0
-89 -114 0
-90 -115 0
-86 -201 0
-87 -202 0
-88 -203 0
-89 -204 0
-90 -205 0
-86 -386 0
-87 -387 0
-88 -388 0
-89 -389 0
-90 -390 0
-86 -436 0
-87 -437 0
-88 -438 0
-89 -439 0
-90 -440 0
-86 -456 0
-87 -457 0
-88 -458 0
-89 -459 0
-90 -460 0
-86 -496 0
-87 -497 0
-88 -498 0
-89 -499 0
-90 -500 0
-91 -331 0
-92 -332 0
-93 -333 0
-94 -334 0
-95 -335 0
-91 -426 0
-92 -427 0
-93 -428 0
-94 -429 0
-95 -430 0
-91 -431 0
-92 -432 0
-93 -433 0
-94 -434 0
-95 -435 0
-96 -186 0
-97 -187 0
-98 -188 0
-99 -189 0
-100 -190 0
-96 -196 0
-97 -197 0
-98 -198 0
-99 -199 0
-100 -200 0
-96 -226 0
-97 -227 0
-98 -228 0
-99 -229 0
-100 -230 0
-96 -241 0
-97 -242 0
-98 -243 0
-99 -244 0
-100 -245 0
-96 -271 0
-97 -272 0
-98 -273 0
-99 -274 0
-100 -275 0
-96 -301 0
-97 -302 0
-98 -303 0
-99 -304 0
-100 -305 0
-96 -376 0
-97 -377 0
-98 -378 0
-99 -379 0
-100 -380 0
-96 -401 0
-97 -402 0
-98 -403 0
-99 -404 0
-100 -405 0
-96 -431 0
-97 -432 0
-98 -433 0
-99 -434 0
-100 -435 0
-101 -151 0
-102 -152 0
-103 -153 0
-104 -154 0
-105 -155 0
-101 -276 0
-102 -277 0
-103 -278 0
-104 -279 0
-105 -280 0
-101 -356 0
-102 -357 0
-103 -358 0
-104 -359 0
-105 -360 0
-101 -366 0
-102 -367 0
-103 -368 0
-104 -369 0
-105 -370 0
-101 -371 0
-102 -372 0
-103 -373 0
-104 -374 0
-105 -375 0
-106 -131 0
-107 -132 0
-108 -133 0
-109 -134 0
-110 -135 0
-106 -151 0
-107 -152 0
-108 -153 0
-109 -154 0
-110 -155 0
-106 -236 0
-107 -237 0
-108 -238 0
-109 -239 0
-110 -240 0
-106 -306 0
-107 -307 0
-108 -308 0
-109 -309 0
-110 -310 0
-111 -166 0
-112 -167 0
-113 -168 0
-114 -169 0
-115 -170 0
-111 -231 0
-112 -232 0
-113 -233 0
-114 -234 0
-115 -235 0
-111 -251 0
-112 -252 0
-113 -253 0
-114 -254 0
-115 -255 0
-111 -306 0
-112 -307 0
-113 -308 0
-114 -309 0
-115 -310 0
-111 -356 0
-112 -357 0
-113 -358 0
-114 -359 0
-115 -360 0
-111 -426 0
-112 -427 0
-113 -428 0
-114 -429 0
-115 -430 0
-111 -481 0
-112 -482 0
-113 -483 0
-114 -484 0
-115 -485 0
-116 -156 0
-117 -157 0
-118 -158 0
-119 -159 0
-120 -160 0
-116 -176 0
-117 -177 0
-118 -178 0
-119 -179 0
-120 -180 0
-116 -201 0
-117 -202 0
-118 -203 0
-119 -204 0
-120 -205 0
-116 -276 0
-117 -277 0
-118 -278 0
-119 -279 0
-120 -280 0
-116 -396 0
-117 -397 0
-118 -398 0
-119 -399 0
-120 -400 0
-116 -441 0
-117 -442 0
-118 -443 0
-119 -444 0
-120 -445 0
-116 -446 0
-117 -447 0
-118 -448 0
-119 -449 0
-120 -450 0
-121 -161 0
-122 -162 0
-123 -163 0
-124 -164 0
-125 -165 0
-121 -186 0
-122 -187 0
-123 -188 0
-124 -189 0
-125 -190 0
-121 -221 0
-122 -222 0
-123 -223 0
-124 -224 0
-125 -225 0
-121 -481 0
-122 -482 0
-123 -483 0
-124 -484 0
-125 -485 0
-126 -171 0
-127 -172 0
-128 -173 0
-129 -174 0
-130 -175 0
-126 -426 0
-127 -427 0
-128 -428 0
-129 -429 0
-130 -430 0
-126 -471 0
-127 -472 0
-128 -473 0
-129 -474 0
-130 -475 0
-126 -476 0
-127 -477 0
-128 -478 0
-129 -479 0
-130 -480 0
-131 -156 0
-132 -157 0
-133 -158 0
-134 -159 0
-135 -160 0
-131 -311 0
-132 -312 0
-133 -313 0
-134 -314 0
-135 -315 0
-131 -371 0
-132 -372 0
-133 -373 0
-134 -374 0
-135 -375 0
-131 -396 0
-132 -397 0
-133 -398 0
-134 -399 0
-135 -400 0
-131 -471 0
-132 -472 0
-133 -473 0
-134 -474 0
-135 -475 0
-131 -481 0
-132 -482 0
-133 -483 0
-134 -484 0
-135 -485 0
-136 -311 0
-137 -312 0
-138 -313 0
-139 -314 0
-140 -315 0
-136 -326 0
-137 -327 0
-138 -328 0
-139 -329 0
-140 -330 0
-136 -341 0
-137 -342 0
-138 -343 0
-139 -344 0
-140 -345 0
-141 -251 0
-142 -252 0
-143 -253 0
-144 -254 0
-145 -255 0
-141 -301 0
-142 -302 0
-143 -303 0
-144 -304 0
-145 -305 0
-141 -331 0
-142 -332 0
-143 -333 0
-144 -334 0
-145 -335 0
-141 -361 0
-142 -362 0
-143 -363 0
-144 -364 0
-145 -365 0
-141 -391 0
-142 -392 0
-143 -393 0
-144 -394 0
-145 -395 0
-141 -411 0
-142 -412 0
-143 -413 0
-144 -414 0
-145 -415 0
-146 -206 0
-147 -207 0
-148 -208 0
-149 -209 0
-150 -210 0
-146 -296 0
-147 -297 0
-148 -298 0
-149 -299 0
-150 -300 0
-146 -406 0
-147 -407 0
-148 -408 0
-149 -409 0
-150 -410 0
-146 -421 0
-147 -422 0
-148 -423 0
-149 -424 0
-150 -425 0
-146 -456 0
-147 -457 0
-148 -458 0
-149 -459 0
-150 -460 0
-146 -486 0
-147 -487 0
-148 -488 0
-149 -489 0
-150 -490 0
-151 -401 0
-152 -402 0
-153 -403 0
-154 -404 0
-155 -405 0
-156 -181 0
-157 -182 0
-158 -183 0
-159 -184 0
-160 -185 0
-156 -231 0
-157 -232 0
-158 -233 0
-159 -234 0
-160 -235 0
-156 -376 0
-157 -377 0
-158 -378 0
-159 -379 0
-160 -380 0
-156 -396 0
-157 -397 0
-158 -398 0
-159 -399 0
-160 -400 0
-156 -401 0
-157 -402 0
-158 -403 0
-159 -404 0
-160 -405 0
-156 -431 0
-157 -432 0
-158 -433 0
-159 -434 0
-160 -435 0
-161 -321 0
-162 -322 0
-163 -323 0
-164 -324 0
-165 -325 0
-161 -326 0
-162 -327 0
-163 -328 0
-164 -329 0
-165 -330 0
-161 -356 0
-162 -357 0
-163 -358 0
-164 -359 0
-165 -360 0
-161 -421 0
-162 -422 0
-163 -423 0
-164 -424 0
-165 -425 0
-161 -451 0
-162 -452 0
-163 -453 0
-164 -454 0
-165 -455 0
-161 -491 0
-162 -492 0
-163 -493 0
-164 -494 0
-165 -495 0
-166 -236 0
-167 -237 0
-168 -238 0
-169 -239 0
-170 -240 0
-166 -251 0
-167 -252 0
-168 -253 0
-169 -254 0
-170 -255 0
-166 -331 0
-167 -332 0
-168 -333 0
-169 -334 0
-170 -335 0
-166 -406 0
-167 -407 0
-168 -408 0
-169 -409 0
-170 -410 0
-166 -411 0
-167 -412 0
-168 -413 0
-169 -414 0
-170 -415 0
-166 -481 0
-167 -482 0
-168 -483 0
-169 -484 0
-170 -485 0
-166 -486 0
-167 -487 0
-168 -488 0
-169 -489 0
-170 -490 0
-171 -226 0
-172 -227 0
-173 -228 0
-174 -229 0
-175 -230 0
-171 -361 0
-172 -362 0
-173 -363 0
-174 -364 0
-175 -365 0
-171 -426 0
-172 -427 0
-173 -428 0
-174 -429 0
-175 -430 0
-171 -456 0
-172 -457 0
-173 -458 0
-174 -459 0
-175 -460 0
-171 -486 0
-172 -487 0
-173 -488 0
-174 -489 0
-175 -490 0
-176 -326 0
-177 -327 0
-178 -328 0
-179 -329 0
-180 -330 0
-176 -371 0
-177 -372 0
-178 -373 0
-179 -374 0
-180 -375 0
-176 -416 0
-177 -417 0
-178 -418 0
-179 -419 0
-180 -420 0
-176 -431 0
-177 -432 0
-178 -433 0
-179 -434 0
-180 -435 0
-176 -456 0
-177 -457 0
-178 -458 0
-179 -459 0
-180 -460 0
-181 -236 0
-182 -237 0
-183 -238 0
-184 -239 0
-185 -240 0
-181 -311 0
-182 -312 0
-183 -313 0
-184 -314 0
-185 -315 0
-181 -316 0
-182 -317 0
-183 -318 0
-184 -319 0
-185 -320 0
-181 -401 0
-182 -402 0
-183 -403 0
-184 -404 0
-185 -405 0
-181 -421 0
-182 -422 0
-183 -423 0
-184 -424 0
-185 -425 0
-181 -446 0
-182 -447 0
-183 -448 0
-184 -449 0
-185 -450 0
-181 -476 0
-182 -477 0
-183 -478 0
-184 -479 0
-185 -480 0
-186 -221 0
-187 -222 0
-188 -223 0
-189 -224 0
-190 -225 0
-186 -401 0
-187 -402 0
-188 -403 0
-189 -404 0
-190 -405 0
-191 -346 0
-192 -347 0
-193 -348 0
-194 -349 0
-195 -350 0
-191 -426 0
-192 -427 0
-193 -428 0
-194 -429 0
-195 -430 0
-191 -456 0
-192 -457 0
-193 -458 0
-194 -459 0
-195 -460 0
-196 -256 0
-197 -257 0
-198 -258 0
-199 -259 0
-200 -260 0
-196 -371 0
-197 -372 0
-198 -373 0
-199 -374 0
-200 -375 0
-196 -401 0
-197 -402 0
-198 -403 0
-199 -404 0
-200 -405 0
-196 -436 0
-197 -437 0
-198 -438 0
-199 -439 0
-200 -440 0
-201 -306 0
-202 -307 0
-203 -308 0
-204 -309 0
-205 -310 0
-201 -401 0
-202 -402 0
-203 -403 0
-204 -404 0
-205 -405 0
-201 -421 0
-202 -422 0
-203 -423 0
-204 -424 0
-205 -425 0
-201 -471 0
-202 -472 0
-203 -473 0
-204 -474 0
-205 -475 0
-201 -476 0
-202 -477 0
-203 -478 0
-204 -479 0
-205 -480 0
-206 -351 0
-207 -352 0
-208 -353 0
-209 -354 0
-210 -355 0
-206 -421 0
-207 -422 0
-208 -423 0
-209 -424 0
-210 -425 0
-211 -311 0
-212 -312 0
-213 -313 0
-214 -314 0
-215 -315 0
-211 -321 0
-212 -322 0
-213 -323 0
-214 -324 0
-215 -325 0
-211 -361 0
-212 -362 0
-213 -363 0
-214 -364 0
-215 -365 0
-211 -381 0
-212 -382 0
-213 -383 0
-214 -384 0
-215 -385 0
-211 -411 0
-212 -412 0
-213 -413 0
-214 -414 0
-215 -415 0
-211 -426 0
-212 -427 0
-213 -428 0
-214 -429 0
-215 -430 0
-211 -471 0
-212 -472 0
-213 -473 0
-214 -474 0
-215 -475 0
-216 -306 0
-217 -307 0
-218 -308 0
-219 -309 0
-220 -310 0
-216 -441 0
-217 -442 0
-218 -443 0
-219 -444 0
-220 -445 0
-221 -246 0
-222 -247 0
-223 -248 0
-224 -249 0
-225 -250 0
-221 -301 0
-222 -302 0
-223 -303 0
-224 -304 0
-225 -305 0
-226 -276 0
-227 -277 0
-228 -278 0
-229 -279 0
-230 -280 0
-226 -356 0
-227 -357 0
-228 -358 0
-229 -359 0
-230 -360 0
-226 -421 0
-227 -422 0
-228 -423 0
-229 -424 0
-230 -425 0
-226 -456 0
-227 -457 0
-228 -458 0
-229 -459 0
-230 -460 0
-231 -261 0
-232 -262 0
-233 -263 0
-234 -264 0
-235 -265 0
-231 -346 0
-232 -347 0
-233 -348 0
-234 -349 0
-235 -350 0
-231 -366 0
-232 -367 0
-233 -368 0
-234 -369 0
-235 -370 0
-231 -411 0
-232 -412 0
-233 -413 0
-234 -414 0
-235 -415 0
-231 -426 0
-232 -427 0
-233 -428 0
-234 -429 0
-235 -430 0
-236 -341 0
-237 -342 0
-238 -343 0
-239 -344 0
-240 -345 0
-236 -351 0
-237 -352 0
-238 -353 0
-239 -354 0
-240 -355 0
-236 -381 0
-237 -382 0
-238 -383 0
-239 -384 0
-240 -385 0
-236 -391 0
-237 -392 0
-238 -393 0
-239 -394 0
-240 -395 0
-236 -446 0
-237 -447 0
-238 -448 0
-239 -449 0
-240 -450 0
-241 -326 0
-242 -327 0
-243 -328 0
-244 -329 0
-245 -330 0
-241 -371 0
-242 -372 0
-243 -373 0
-244 -374 0
-245 -375 0
-241 -376 0
-242 -377 0
-243 -378 0
-244 -379 0
-245 -380 0
-241 -401 0
-242 -402 0
-243 -403 0
-244 -404 0
-245 -405 0
-241 -406 0
-242 -407 0
-243 -408 0
-244 -409 0
-245 -410 0
-241 -431 0
-242 -432 0
-243 -433 0
-244 -434 0
-245 -435 0
-241 -446 0
-242 -447 0
-243 -448 0
-244 -449 0
-245 -450 0
-241 -471 0
-242 -472 0
-243 -473 0
-244 -474 0
-245 -475 0
-246 -341 0
-247 -342 0
-248 -343 0
-249 -344 0
-250 -345 0
-251 -341 0
-252 -342 0
-253 -343 0
-254 -344 0
-255 -345 0
-251 -451 0
-252 -452 0
-253 -453 0
-254 -454 0
-255 -455 0
-251 -471 0
-252 -472 0
-253 -473 0
-254 -474 0
-255 -475 0
-251 -481 0
-252 -482 0
-253 -483 0
-254 -484 0
-255 -485 0
-251 -486 0
-252 -487 0
-253 -488 0
-254 -489 0
-255 -490 0
-261 -446 0
-262 -447 0
-263 -448 0
-264 -449 0
-265 -450 0
-266 -346 0
-267 -347 0
-268 -348 0
-269 -349 0
-270 -350 0
-266 -421 0
-267 -422 0
-268 -423 0
-269 -424 0
-270 -425 0
-266 -451 0
-267 -452 0
-268 -453 0
-269 -454 0
-270 -455 0
-266 -481 0
-267 -482 0
-268 -483 0
-269 -484 0
-270 -485 0
-271 -336 0
-272 -337 0
-273 -338 0
-274 -339 0
-275 -340 0
-271 -416 0
-272 -417 0
-273 -418 0
-274 -419 0
-275 -420 0
-271 -436 0
-272 -437 0
-273 -438 0
-274 -439 0
-275 -440 0
-276 -301 0
-277 -302 0
-278 -303 0
-279 -304 0
-280 -305 0
-276 -331 0
-277 -332 0
-278 -333 0
-279 -334 0
-280 -335 0
-276 -466 0
-277 -467 0
-278 -468 0
-279 -469 0
-280 -470 0
-276 -496 0
-277 -497 0
-278 -498 0
-279 -499 0
-280 -500 0
-281 -311 0
-282 -312 0
-283 -313 0
-284 -314 0
-285 -315 0
-286 -376 0
-287 -377 0
-288 -378 0
-289 -379 0
-290 -380 0
-286 -391 0
-287 -392 0
-288 -393 0
-289 -394 0
-290 -395 0
-286 -486 0
-287 -487 0
-288 -488 0
-289 -489 0
-290 -490 0
-291 -471 0
-292 -472 0
-293 -473 0
-294 -474 0
-295 -475 0
-296 -326 0
-297 -327 0
-298 -328 0
-299 -329 0
-300 -330 0
-296 -351 0
-297 -352 0
-298 -353 0
-299 -354 0
-300 -355 0
-296 -446 0
-297 -447 0
-298 -448 0
-299 -449 0
-300 -450 0
-296 -476 0
-297 -477 0
-298 -478 0
-299 -479 0
-300 -480 0
-296 -486 0
-297 -487 0
-298 -488 0
-299 -489 0
-300 -490 0
-301 -476 0
-302 -477 0
-303 -478 0
-304 -479 0
-305 -480 0
-301 -486 0
-302 -487 0
-303 -488 0
-304 -489 0
-305 -490 0
-306 -331 0
-307 -332 0
-308 -333 0
-309 -334 0
-310 -335 0
-306 -356 0
-307 -357 0
-308 -358 0
-309 -359 0
-310 -360 0
-306 -381 0
-307 -382 0
-308 -383 0
-309 -384 0
-310 -385 0
-306 -491 0
-307 -492 0
-308 -493 0
-309 -494 0
-310 -495 0
-311 -486 0
-312 -487 0
-313 -488 0
-314 -489 0
-315 -490 0
-311 -496 0
-312 -497 0
-313 -498 0
-314 -499 0
-315 -500 0
-316 -341 0
-317 -342 0
-318 -343 0
-319 -344 0
-320 -345 0
-316 -346 0
-317 -347 0
-318 -348 0
-319 -349 0
-320 -350 0
-316 -401 0
-317 -402 0
-318 -403 0
-319 -404 0
-320 -405 0
-321 -356 0
-322 -357 0
-323 -358 0
-324 -359 0
-325 -360 0
-321 -361 0
-322 -362 0
-323 -363 0
-324 -364 0
-325 -365 0
-326 -396 0
-327 -397 0
-328 -398 0
-329 -399 0
-330 -400 0
-326 -416 0
-327 -417 0
-328 -418 0
-329 -419 0
-330 -420 0
-326 -421 0
-327 -422 0
-328 -423 0
-329 -424 0
-330 -425 0
-326 -446 0
-327 -447 0
-328 -448 0
-329 -449 0
-330 -450 0
-326 -491 0
-327 -492 0
-328 -493 0
-329 -494 0
-330 -495 0
-331 -421 0
-332 -422 0
-333 -423 0
-334 -424 0
-335 -425 0
-331 -426 0
-332 -427 0
-333 -428 0
-334 -429 0
-335 -430 0
-331 -431 0
-332 -432 0
-333 -433 0
-334 -434 0
-335 -435 0
-331 -441 0
-332 -442 0
-333 -443 0
-334 -444 0
-335 -445 0
-331 -446 0
-332 -447 0
-333 -448 0
-334 -449 0
-335 -450 0
-336 -431 0
-337 -432 0
-338 -433 0
-339 -434 0
-340 -435 0
-336 -446 0
-337 -447 0
-338 -448 0
-339 -449 0
-340 -450 0
-336 -481 0
-337 -482 0
-338 -483 0
-339 -484 0
-340 -485 0
-341 -391 0
-342 -392 0
-343 -393 0
-344 -394 0
-345 -395 0
-341 -406 0
-342 -407 0
-343 -408 0
-344 -409 0
-345 -410 0
-351 -396 0
-352 -397 0
-353 -398 0
-354 -399 0
-355 -400 0
-351 -426 0
-352 -427 0
-353 -428 0
-354 -429 0
-355 -430 0
-361 -411 0
-362 -412 0
-363 -413 0
-364 -414 0
-365 -415 0
-366 -496 0
-367 -497 0
-368 -498 0
-369 -499 0
-370 -500 0
-371 -416 0
-372 -417 0
-373 -418 0
-374 -419 0
-375 -420 0
-371 -426 0
-372 -427 0
-373 -428 0
-374 -429 0
-375 -430 0
-376 -421 0
-377 -422 0
-378 -423 0
-379 -424 0
-380 -425 0
-381 -411 0
-382 -412 0
-383 -413 0
-384 -414 0
-385 -415 0
-381 -426 0
-382 -427 0
-383 -428 0
-384 -429 0
-385 -430 0
-381 -491 0
-382 -492 0
-383 -493 0
-384 -494 0
-385 -495 0
-386 -411 0
-387 -412 0
-388 -413 0
-389 -414 0
-390 -415 0
-386 -461 0
-387 -462 0
-388 -463 0
-389 -464 0
-390 -465 0
-386 -471 0
-387 -472 0
-388 -473 0
-389 -474 0
-390 -475 0
-391 -486 0
-392 -487 0
-393 -488 0
-394 -489 0
-395 -490 0
-396 -456 0
-397 -457 0
-398 -458 0
-399 -459 0
-400 -460 0
-401 -431 0
-402 -432 0
-403 -433 0
-404 -434 0
-405 -435 0
-401 -471 0
-402 -472 0
-403 -473 0
-404 -474 0
-405 -475 0
-401 -496 0
-402 -497 0
-403 -498 0
-404 -499 0
-405 -500 0
-416 -481 0
-417 -482 0
-418 -483 0
-419 -484 0
-420 -485 0
-421 -466 0
-422 -467 0
-423 -468 0
-424 -469 0
-425 -470 0
-426 -481 0
-427 -482 0
-428 -483 0
-429 -484 0
-430 -485 0
-431 -481 0
-432 -482 0
-433 -483 0
-434 -484 0
-435 -485 0
